BAYES
289
2 2 2 2 2 2 2 2 2 2 2 2 2 2 2 2 2 2 2 2 2 2 2 2 2 2 2 2 2 2 2 2 2 2 2 2 2 2 2 2 2 2 2 2 2 2 2 2 2 2 2 2 2 2 2 2 2 2 2 2 2 2 2 2 2 2 2 2 2 2 2 2 2 2 2 2 2 2 2 2 2 2 2 2 2 2 2 2 2 2 2 2 2 2 2 2 2 2 2 2 2 2 2 2 2 2 2 2 2 2 2 2 2 2 2 2 2 2 2 2 2 2 2 2 2 2 2 2 2 2 2 2 2 2 2 2 2 2 2 2 2 2 2 2 2 2 2 2 2 2 2 2 2 2 2 2 2 2 2 2 2 2 2 2 2 2 2 2 2 2 2 2 2 2 2 2 2 2 2 2 2 2 2 2 2 2 2 2 2 2 2 2 2 2 2 2 2 2 2 2 2 2 2 2 2 2 2 2 2 2 2 2 2 2 2 2 2 2 2 2 2 2 2 2 2 2 2 2 2 2 2 2 2 2 2 2 2 2 2 2 2 2 2 2 2 2 2 2 2 2 2 2 2 2 2 2 2 2 2 2 2 2 2 2 2 2 2 2 2 2 2 2 2 2 2 2 2 2 2 2 2 2 2 2 2 2 2 2 2 
289
3	1	55	0
3	5	137	1
3	3	92	2
3	4	91	3
2	90	4
3	6	88	5
3	7	87	6
3	8	86	7
3	2	85	8
3	10	216	9
3	15	136	10
3	12	288	11
3	9	287	12
3	14	277	13
3	19	276	14
3	16	56	15
3	73	275	16
3	18	134	17
3	22	223	18
3	20	221	19
3	17	220	20
2	218	21
3	23	207	22
3	21	206	23
3	60	122	24
3	26	45	25
3	27	44	26
3	28	273	27
3	29	271	28
3	30	268	29
3	31	267	30
3	32	146	31
3	33	89	32
2	72	33
3	37	96	34
3	34	95	35
3	234	94	36
3	36	93	37
3	41	100	38
3	38	99	39
3	35	98	40
3	40	97	41
3	43	84	42
3	130	83	43
3	273	43	44
3	44	42	45
2	248	46
3	133	145	47
3	47	144	48
3	52	143	49
2	46	50
3	54	141	51
3	51	140	52
3	55	139	53
3	53	138	54
3	137	13	55
3	275	147	56
3	111	108	57
3	120	286	58
3	122	176	59
3	58	270	60
3	62	279	61
3	63	278	62
3	64	281	63
3	65	280	64
3	66	283	65
3	67	282	66
3	68	285	67
3	174	284	68
3	156	76	69
3	24	59	70
3	199	222	71
2	156	72
3	75	272	73
3	57	199	74
3	42	269	75
3	78	3	76
3	76	2	77
2	4	78
3	82	6	79
3	79	5	80
3	77	8	81
3	81	7	82
3	80	1	83
3	83	0	84
3	92	18	85
3	85	17	86
3	86	20	87
3	87	19	88
3	72	69	89
2	21	90
3	90	23	91
3	91	22	92
3	94	226	93
3	163	225	94
3	96	228	95
3	93	227	96
3	98	230	97
3	95	229	98
3	100	232	99
3	97	231	100
3	104	28	101
3	101	27	102
3	106	30	103
3	103	29	104
3	107	32	105
3	105	31	106
2	33	107
3	25	179	108
3	165	81	109
3	102	26	110
3	110	25	111
3	113	244	112
3	118	243	113
3	115	246	114
3	112	245	115
3	117	248	116
3	131	247	117
3	119	50	118
3	116	46	119
3	121	219	120
3	74	71	121
3	270	217	122
3	124	193	123
3	128	192	124
3	126	191	125
3	123	190	126
2	189	127
3	129	188	128
3	127	187	129
3	135	80	130
3	132	195	131
3	125	194	132
3	49	142	133
3	223	202	134
3	173	79	135
3	56	154	136
3	88	14	137
3	139	213	138
3	13	212	139
3	141	215	140
3	138	214	141
3	143	209	142
3	140	208	143
3	145	211	144
3	142	210	145
3	89	165	146
3	148	52	147
3	149	51	148
3	150	54	149
3	0	53	150
3	152	48	151
3	153	47	152
3	154	133	153
3	147	49	154
2	258	155
2	78	156
3	158	256	157
3	155	255	158
3	160	254	159
3	157	253	160
3	162	252	161
3	159	251	162
3	164	250	163
3	161	249	164
3	69	77	165
3	167	183	166
3	168	182	167
3	169	181	168
3	170	180	169
3	171	186	170
3	172	185	171
2	184	172
3	109	82	173
3	175	178	174
3	166	177	175
3	217	11	176
3	183	132	177
3	177	131	178
3	45	75	179
3	186	124	180
3	180	123	181
3	181	126	182
3	182	125	183
2	127	184
3	184	129	185
3	185	128	186
2	189	187
2	187	188
1	189
2	193	190
2	190	191
2	188	192
2	192	193
2	191	194
2	194	195
3	197	238	196
3	198	237	197
2	236	198
3	108	235	199
3	201	242	200
3	202	241	201
3	203	240	202
3	196	239	203
3	205	234	204
3	200	233	205
3	218	197	206
3	206	196	207
3	215	266	208
3	208	265	209
3	209	264	210
3	210	263	211
3	277	262	212
3	212	261	213
3	213	260	214
3	214	259	215
3	136	153	216
3	274	12	217
2	198	218
3	71	224	219
3	134	201	220
3	220	200	221
3	235	16	222
3	207	203	223
3	222	15	224
3	250	68	225
3	225	67	226
3	226	66	227
3	227	65	228
3	228	64	229
3	229	63	230
3	230	62	231
3	231	61	232
3	242	164	233
3	233	163	234
3	179	73	235
2	155	236
3	236	158	237
3	237	157	238
3	238	160	239
3	239	159	240
3	240	162	241
3	241	161	242
2	50	243
2	243	244
2	244	245
2	245	246
2	195	247
2	247	248
3	252	175	249
3	249	174	250
3	254	167	251
3	251	166	252
3	256	169	253
3	253	168	254
3	258	171	255
3	255	170	256
3	224	10	257
2	172	258
3	260	35	259
3	261	34	260
3	262	37	261
3	204	36	262
3	264	39	263
3	265	38	264
3	266	41	265
3	259	40	266
3	146	109	267
3	267	173	268
3	84	150	269
3	286	274	270
3	268	135	271
3	269	149	272
3	271	130	273
3	257	9	274
3	272	148	275
3	221	205	276
3	276	204	277
3	281	115	278
3	278	114	279
3	283	113	280
3	280	112	281
3	285	119	282
3	282	118	283
3	178	117	284
3	284	116	285
3	219	257	286
3	216	152	287
3	287	151	288

8
 1.00000000 0.00000000
 0.00000000 1.00000000
 0.00000000 1.00000000
 0.00000000 1.00000000

8
 0.00000000 1.00000000
 0.00000000 1.00000000
 1.00000000 0.00000000
 0.00000000 1.00000000

8
 0.00000000 1.00000000
 1.00000000 0.00000000
 0.00000000 1.00000000
 1.00000000 0.00000000

8
 0.67552400 0.32447600
 0.15325300 0.84674700
 0.56027400 0.43972600
 0.24883100 0.75116900

4
 0.35029300 0.64970700
 0.95202500 0.04797470

8
 1.00000000 0.00000000
 1.00000000 0.00000000
 0.00000000 1.00000000
 0.00000000 1.00000000

8
 0.00000000 1.00000000
 1.00000000 0.00000000
 0.00000000 1.00000000
 1.00000000 0.00000000

8
 1.00000000 0.00000000
 0.00000000 1.00000000
 0.00000000 1.00000000
 0.00000000 1.00000000

8
 0.00000000 1.00000000
 1.00000000 0.00000000
 0.00000000 1.00000000
 0.00000000 1.00000000

8
 1.00000000 0.00000000
 0.00000000 1.00000000
 1.00000000 0.00000000
 1.00000000 0.00000000

8
 0.00000000 1.00000000
 1.00000000 0.00000000
 1.00000000 0.00000000
 1.00000000 0.00000000

8
 1.00000000 0.00000000
 0.00000000 1.00000000
 0.00000000 1.00000000
 0.00000000 1.00000000

8
 0.90865300 0.09134720
 0.16325300 0.83674700
 0.61611400 0.38388600
 0.30736600 0.69263400

8
 0.00000000 1.00000000
 0.00000000 1.00000000
 0.00000000 1.00000000
 1.00000000 0.00000000

8
 1.00000000 0.00000000
 0.00000000 1.00000000
 1.00000000 0.00000000
 0.00000000 1.00000000

8
 0.00000000 1.00000000
 1.00000000 0.00000000
 0.00000000 1.00000000
 0.00000000 1.00000000

8
 1.00000000 0.00000000
 1.00000000 0.00000000
 0.00000000 1.00000000
 0.00000000 1.00000000

8
 1.00000000 0.00000000
 0.00000000 1.00000000
 0.00000000 1.00000000
 0.00000000 1.00000000

8
 1.00000000 0.00000000
 1.00000000 0.00000000
 0.00000000 1.00000000
 0.00000000 1.00000000

8
 1.00000000 0.00000000
 0.00000000 1.00000000
 1.00000000 0.00000000
 1.00000000 0.00000000

8
 0.00000000 1.00000000
 1.00000000 0.00000000
 0.00000000 1.00000000
 1.00000000 0.00000000

4
 1.00000000 0.00000000
 0.00000000 1.00000000

8
 0.00000000 1.00000000
 0.00000000 1.00000000
 1.00000000 0.00000000
 1.00000000 0.00000000

8
 0.24509400 0.75490600
 0.23695500 0.76304500
 0.73300100 0.26699900
 0.84213100 0.15786900

8
 1.00000000 0.00000000
 0.00000000 1.00000000
 1.00000000 0.00000000
 1.00000000 0.00000000

8
 0.00000000 1.00000000
 1.00000000 0.00000000
 1.00000000 0.00000000
 0.00000000 1.00000000

8
 0.00000000 1.00000000
 0.00000000 1.00000000
 1.00000000 0.00000000
 1.00000000 0.00000000

8
 0.00000000 1.00000000
 1.00000000 0.00000000
 0.00000000 1.00000000
 0.00000000 1.00000000

8
 1.00000000 0.00000000
 0.00000000 1.00000000
 1.00000000 0.00000000
 0.00000000 1.00000000

8
 0.58959900 0.41040100
 0.57683000 0.42317000
 0.71931800 0.28068200
 0.25916400 0.74083600

8
 1.00000000 0.00000000
 0.00000000 1.00000000
 1.00000000 0.00000000
 0.00000000 1.00000000

8
 0.16372800 0.83627200
 0.73575600 0.26424400
 0.21146000 0.78854000
 0.16360600 0.83639400

8
 0.22587200 0.77412800
 0.39436100 0.60563900
 0.54068300 0.45931700
 0.46315800 0.53684200

4
 0.57196600 0.42803400
 0.34618900 0.65381100

8
 1.00000000 0.00000000
 1.00000000 0.00000000
 1.00000000 0.00000000
 0.00000000 1.00000000

8
 0.00000000 1.00000000
 1.00000000 0.00000000
 1.00000000 0.00000000
 0.00000000 1.00000000

8
 0.84591700 0.15408300
 0.22881100 0.77118900
 0.92078900 0.07921100
 0.03193240 0.96806800

8
 0.00000000 1.00000000
 1.00000000 0.00000000
 0.00000000 1.00000000
 1.00000000 0.00000000

8
 0.93004100 0.06995910
 0.51431000 0.48569000
 0.07245850 0.92754100
 0.85083000 0.14917000

8
 1.00000000 0.00000000
 1.00000000 0.00000000
 0.00000000 1.00000000
 0.00000000 1.00000000

8
 1.00000000 0.00000000
 0.00000000 1.00000000
 1.00000000 0.00000000
 0.00000000 1.00000000

8
 0.79858300 0.20141700
 0.40247100 0.59752900
 0.15738500 0.84261500
 0.66839300 0.33160700

8
 1.00000000 0.00000000
 0.00000000 1.00000000
 0.00000000 1.00000000
 0.00000000 1.00000000

8
 1.00000000 0.00000000
 0.00000000 1.00000000
 0.00000000 1.00000000
 0.00000000 1.00000000

8
 0.00000000 1.00000000
 1.00000000 0.00000000
 0.00000000 1.00000000
 1.00000000 0.00000000

8
 1.00000000 0.00000000
 0.00000000 1.00000000
 1.00000000 0.00000000
 0.00000000 1.00000000

4
 1.00000000 0.00000000
 0.00000000 1.00000000

8
 0.00765066 0.99234900
 0.34496700 0.65503300
 0.63438800 0.36561200
 0.87387000 0.12613000

8
 1.00000000 0.00000000
 1.00000000 0.00000000
 1.00000000 0.00000000
 0.00000000 1.00000000

8
 0.00000000 1.00000000
 1.00000000 0.00000000
 0.00000000 1.00000000
 0.00000000 1.00000000

4
 0.00000000 1.00000000
 1.00000000 0.00000000

8
 0.14389700 0.85610300
 0.01812220 0.98187800
 0.32523100 0.67476900
 0.20122800 0.79877200

8
 0.00000000 1.00000000
 1.00000000 0.00000000
 0.00000000 1.00000000
 1.00000000 0.00000000

8
 0.00000000 1.00000000
 1.00000000 0.00000000
 0.00000000 1.00000000
 0.00000000 1.00000000

8
 0.04342120 0.95657900
 0.50544300 0.49455700
 0.34467500 0.65532500
 0.99697000 0.00302952

8
 0.00000000 1.00000000
 1.00000000 0.00000000
 1.00000000 0.00000000
 0.00000000 1.00000000

8
 0.00000000 1.00000000
 0.00000000 1.00000000
 1.00000000 0.00000000
 0.00000000 1.00000000

8
 0.00000000 1.00000000
 0.00000000 1.00000000
 1.00000000 0.00000000
 0.00000000 1.00000000

8
 0.50962000 0.49038000
 0.95987800 0.04012220
 0.70362300 0.29637700
 0.10405300 0.89594700

8
 0.00000000 1.00000000
 1.00000000 0.00000000
 0.00000000 1.00000000
 1.00000000 0.00000000

8
 0.11069100 0.88930900
 0.66432600 0.33567400
 0.58459200 0.41540800
 0.69837500 0.30162500

8
 0.00000000 1.00000000
 0.00000000 1.00000000
 0.00000000 1.00000000
 1.00000000 0.00000000

8
 0.24584900 0.75415100
 0.14975200 0.85024800
 0.63441200 0.36558800
 0.16728700 0.83271300

8
 1.00000000 0.00000000
 0.00000000 1.00000000
 1.00000000 0.00000000
 0.00000000 1.00000000

8
 0.00000000 1.00000000
 1.00000000 0.00000000
 1.00000000 0.00000000
 1.00000000 0.00000000

8
 0.00000000 1.00000000
 0.00000000 1.00000000
 0.00000000 1.00000000
 1.00000000 0.00000000

8
 0.99951800 0.00048156
 0.21960300 0.78039700
 0.77222700 0.22777300
 0.09444210 0.90555800

8
 0.00000000 1.00000000
 1.00000000 0.00000000
 1.00000000 0.00000000
 1.00000000 0.00000000

8
 0.20175600 0.79824400
 0.45585700 0.54414300
 0.77177500 0.22822500
 0.92143700 0.07856270

8
 0.00000000 1.00000000
 0.00000000 1.00000000
 1.00000000 0.00000000
 1.00000000 0.00000000

8
 1.00000000 0.00000000
 1.00000000 0.00000000
 0.00000000 1.00000000
 0.00000000 1.00000000

8
 0.00000000 1.00000000
 0.00000000 1.00000000
 0.00000000 1.00000000
 1.00000000 0.00000000

4
 1.00000000 0.00000000
 0.00000000 1.00000000

8
 1.00000000 0.00000000
 0.00000000 1.00000000
 1.00000000 0.00000000
 1.00000000 0.00000000

8
 0.00000000 1.00000000
 0.00000000 1.00000000
 0.00000000 1.00000000
 1.00000000 0.00000000

8
 1.00000000 0.00000000
 0.00000000 1.00000000
 0.00000000 1.00000000
 1.00000000 0.00000000

8
 0.00000000 1.00000000
 0.00000000 1.00000000
 0.00000000 1.00000000
 1.00000000 0.00000000

8
 1.00000000 0.00000000
 0.00000000 1.00000000
 0.00000000 1.00000000
 0.00000000 1.00000000

4
 0.35013300 0.64986700
 0.93382300 0.06617740

8
 0.00000000 1.00000000
 1.00000000 0.00000000
 0.00000000 1.00000000
 0.00000000 1.00000000

8
 1.00000000 0.00000000
 1.00000000 0.00000000
 1.00000000 0.00000000
 0.00000000 1.00000000

8
 0.00000000 1.00000000
 1.00000000 0.00000000
 0.00000000 1.00000000
 1.00000000 0.00000000

8
 1.00000000 0.00000000
 1.00000000 0.00000000
 0.00000000 1.00000000
 1.00000000 0.00000000

8
 0.15460100 0.84539900
 0.44873800 0.55126200
 0.77210700 0.22789300
 0.76815100 0.23184900

8
 0.00000000 1.00000000
 0.00000000 1.00000000
 1.00000000 0.00000000
 0.00000000 1.00000000

8
 1.00000000 0.00000000
 0.00000000 1.00000000
 1.00000000 0.00000000
 0.00000000 1.00000000

8
 0.00000000 1.00000000
 1.00000000 0.00000000
 1.00000000 0.00000000
 1.00000000 0.00000000

8
 0.02115170 0.97884800
 0.54307600 0.45692400
 0.05733090 0.94266900
 0.60976700 0.39023300

8
 0.00000000 1.00000000
 1.00000000 0.00000000
 0.00000000 1.00000000
 1.00000000 0.00000000

8
 0.00000000 1.00000000
 1.00000000 0.00000000
 0.00000000 1.00000000
 1.00000000 0.00000000

4
 0.83189700 0.16810300
 0.41422600 0.58577400

8
 0.00000000 1.00000000
 1.00000000 0.00000000
 0.00000000 1.00000000
 0.00000000 1.00000000

8
 1.00000000 0.00000000
 1.00000000 0.00000000
 0.00000000 1.00000000
 0.00000000 1.00000000

8
 1.00000000 0.00000000
 0.00000000 1.00000000
 0.00000000 1.00000000
 1.00000000 0.00000000

8
 1.00000000 0.00000000
 0.00000000 1.00000000
 1.00000000 0.00000000
 0.00000000 1.00000000

8
 0.44528100 0.55471900
 0.11259800 0.88740200
 0.80168700 0.19831300
 0.93741900 0.06258110

8
 1.00000000 0.00000000
 1.00000000 0.00000000
 1.00000000 0.00000000
 0.00000000 1.00000000

8
 1.00000000 0.00000000
 0.00000000 1.00000000
 0.00000000 1.00000000
 1.00000000 0.00000000

8
 0.00000000 1.00000000
 1.00000000 0.00000000
 1.00000000 0.00000000
 0.00000000 1.00000000

8
 1.00000000 0.00000000
 0.00000000 1.00000000
 0.00000000 1.00000000
 0.00000000 1.00000000

8
 1.00000000 0.00000000
 0.00000000 1.00000000
 0.00000000 1.00000000
 0.00000000 1.00000000

8
 0.00000000 1.00000000
 1.00000000 0.00000000
 0.00000000 1.00000000
 1.00000000 0.00000000

8
 0.63379500 0.36620500
 0.57099100 0.42900900
 0.11356400 0.88643600
 0.17622200 0.82377800

8
 0.66428900 0.33571100
 0.78316600 0.21683400
 0.48523600 0.51476400
 0.47829300 0.52170700

8
 0.00000000 1.00000000
 0.00000000 1.00000000
 1.00000000 0.00000000
 1.00000000 0.00000000

8
 0.00000000 1.00000000
 0.00000000 1.00000000
 1.00000000 0.00000000
 0.00000000 1.00000000

8
 0.00000000 1.00000000
 1.00000000 0.00000000
 1.00000000 0.00000000
 1.00000000 0.00000000

4
 0.00000000 1.00000000
 1.00000000 0.00000000

8
 0.41078500 0.58921500
 0.27964100 0.72035900
 0.16226300 0.83773700
 0.27106400 0.72893600

8
 0.63427300 0.36572700
 0.26029200 0.73970800
 0.74740300 0.25259700
 0.47225100 0.52774900

8
 1.00000000 0.00000000
 1.00000000 0.00000000
 1.00000000 0.00000000
 0.00000000 1.00000000

8
 0.40706800 0.59293200
 0.56027300 0.43972700
 0.66401000 0.33599000
 0.58768400 0.41231600

8
 1.00000000 0.00000000
 1.00000000 0.00000000
 0.00000000 1.00000000
 1.00000000 0.00000000

8
 1.00000000 0.00000000
 1.00000000 0.00000000
 1.00000000 0.00000000
 0.00000000 1.00000000

8
 0.00000000 1.00000000
 1.00000000 0.00000000
 1.00000000 0.00000000
 0.00000000 1.00000000

8
 0.00000000 1.00000000
 1.00000000 0.00000000
 0.00000000 1.00000000
 1.00000000 0.00000000

8
 0.00000000 1.00000000
 0.00000000 1.00000000
 1.00000000 0.00000000
 0.00000000 1.00000000

8
 0.00000000 1.00000000
 1.00000000 0.00000000
 0.00000000 1.00000000
 0.00000000 1.00000000

8
 0.00000000 1.00000000
 0.00000000 1.00000000
 1.00000000 0.00000000
 1.00000000 0.00000000

8
 0.04916970 0.95083000
 0.97257500 0.02742490
 0.25465800 0.74534200
 0.27089600 0.72910400

8
 0.00000000 1.00000000
 1.00000000 0.00000000
 1.00000000 0.00000000
 1.00000000 0.00000000

8
 1.00000000 0.00000000
 1.00000000 0.00000000
 0.00000000 1.00000000
 1.00000000 0.00000000

8
 1.00000000 0.00000000
 0.00000000 1.00000000
 1.00000000 0.00000000
 1.00000000 0.00000000

8
 1.00000000 0.00000000
 0.00000000 1.00000000
 0.00000000 1.00000000
 0.00000000 1.00000000

8
 1.00000000 0.00000000
 0.00000000 1.00000000
 0.00000000 1.00000000
 1.00000000 0.00000000

8
 0.77261700 0.22738300
 0.50371200 0.49628800
 0.62147400 0.37852600
 0.26031600 0.73968400

8
 1.00000000 0.00000000
 1.00000000 0.00000000
 1.00000000 0.00000000
 0.00000000 1.00000000

4
 0.48769900 0.51230100
 0.92617100 0.07382870

8
 0.00000000 1.00000000
 1.00000000 0.00000000
 0.00000000 1.00000000
 0.00000000 1.00000000

8
 0.00000000 1.00000000
 1.00000000 0.00000000
 1.00000000 0.00000000
 1.00000000 0.00000000

8
 1.00000000 0.00000000
 1.00000000 0.00000000
 0.00000000 1.00000000
 0.00000000 1.00000000

8
 0.95803800 0.04196230
 0.12455400 0.87544600
 0.03051980 0.96948000
 0.01110290 0.98889700

8
 0.00000000 1.00000000
 1.00000000 0.00000000
 1.00000000 0.00000000
 1.00000000 0.00000000

8
 1.00000000 0.00000000
 0.00000000 1.00000000
 1.00000000 0.00000000
 0.00000000 1.00000000

8
 0.00000000 1.00000000
 1.00000000 0.00000000
 1.00000000 0.00000000
 0.00000000 1.00000000

8
 0.00000000 1.00000000
 1.00000000 0.00000000
 0.00000000 1.00000000
 1.00000000 0.00000000

8
 0.21998000 0.78002000
 0.66809200 0.33190800
 0.76404800 0.23595200
 0.98813100 0.01186900

8
 0.00000000 1.00000000
 1.00000000 0.00000000
 0.00000000 1.00000000
 0.00000000 1.00000000

8
 0.52101300 0.47898700
 0.43863600 0.56136400
 0.73092700 0.26907300
 0.59282600 0.40717400

8
 1.00000000 0.00000000
 0.00000000 1.00000000
 0.00000000 1.00000000
 1.00000000 0.00000000

8
 0.00000000 1.00000000
 0.00000000 1.00000000
 0.00000000 1.00000000
 1.00000000 0.00000000

8
 0.00000000 1.00000000
 0.00000000 1.00000000
 1.00000000 0.00000000
 0.00000000 1.00000000

8
 1.00000000 0.00000000
 0.00000000 1.00000000
 0.00000000 1.00000000
 1.00000000 0.00000000

8
 1.00000000 0.00000000
 0.00000000 1.00000000
 1.00000000 0.00000000
 1.00000000 0.00000000

8
 0.00000000 1.00000000
 1.00000000 0.00000000
 1.00000000 0.00000000
 1.00000000 0.00000000

8
 0.48899700 0.51100300
 0.28361300 0.71638700
 0.06760240 0.93239800
 0.26636400 0.73363600

8
 1.00000000 0.00000000
 0.00000000 1.00000000
 1.00000000 0.00000000
 1.00000000 0.00000000

8
 0.76712300 0.23287700
 0.80633000 0.19367000
 0.17694300 0.82305700
 0.38471400 0.61528600

8
 0.31168400 0.68831600
 0.42587100 0.57412900
 0.49982600 0.50017400
 0.15494300 0.84505700

8
 1.00000000 0.00000000
 1.00000000 0.00000000
 0.00000000 1.00000000
 1.00000000 0.00000000

8
 0.11617300 0.88382700
 0.43948600 0.56051400
 0.67792400 0.32207600
 0.87270600 0.12729400

8
 0.00000000 1.00000000
 1.00000000 0.00000000
 1.00000000 0.00000000
 1.00000000 0.00000000

8
 0.00000000 1.00000000
 0.00000000 1.00000000
 0.00000000 1.00000000
 1.00000000 0.00000000

8
 0.00000000 1.00000000
 1.00000000 0.00000000
 1.00000000 0.00000000
 0.00000000 1.00000000

8
 1.00000000 0.00000000
 0.00000000 1.00000000
 1.00000000 0.00000000
 1.00000000 0.00000000

4
 0.00000000 1.00000000
 1.00000000 0.00000000

4
 1.00000000 0.00000000
 0.00000000 1.00000000

8
 0.76999500 0.23000500
 0.46034900 0.53965100
 0.62540700 0.37459300
 0.68232900 0.31767100

8
 0.00000000 1.00000000
 0.00000000 1.00000000
 1.00000000 0.00000000
 1.00000000 0.00000000

8
 0.00000000 1.00000000
 1.00000000 0.00000000
 1.00000000 0.00000000
 1.00000000 0.00000000

8
 1.00000000 0.00000000
 1.00000000 0.00000000
 1.00000000 0.00000000
 0.00000000 1.00000000

8
 0.21142300 0.78857700
 0.74474800 0.25525200
 0.98765400 0.01234610
 0.49213800 0.50786200

8
 1.00000000 0.00000000
 0.00000000 1.00000000
 1.00000000 0.00000000
 1.00000000 0.00000000

8
 0.00000000 1.00000000
 0.00000000 1.00000000
 0.00000000 1.00000000
 1.00000000 0.00000000

8
 0.00000000 1.00000000
 1.00000000 0.00000000
 0.00000000 1.00000000
 1.00000000 0.00000000

8
 1.00000000 0.00000000
 0.00000000 1.00000000
 1.00000000 0.00000000
 1.00000000 0.00000000

8
 1.00000000 0.00000000
 1.00000000 0.00000000
 1.00000000 0.00000000
 0.00000000 1.00000000

8
 0.00000000 1.00000000
 0.00000000 1.00000000
 1.00000000 0.00000000
 1.00000000 0.00000000

8
 1.00000000 0.00000000
 1.00000000 0.00000000
 1.00000000 0.00000000
 0.00000000 1.00000000

8
 0.00000000 1.00000000
 0.00000000 1.00000000
 0.00000000 1.00000000
 1.00000000 0.00000000

8
 0.90397300 0.09602730
 0.28312000 0.71688000
 0.61933300 0.38066700
 0.28522000 0.71478000

8
 1.00000000 0.00000000
 0.00000000 1.00000000
 1.00000000 0.00000000
 1.00000000 0.00000000

4
 1.00000000 0.00000000
 0.00000000 1.00000000

8
 0.00000000 1.00000000
 0.00000000 1.00000000
 0.00000000 1.00000000
 1.00000000 0.00000000

8
 0.00000000 1.00000000
 1.00000000 0.00000000
 0.00000000 1.00000000
 1.00000000 0.00000000

8
 0.00000000 1.00000000
 0.00000000 1.00000000
 0.00000000 1.00000000
 1.00000000 0.00000000

8
 0.00000000 1.00000000
 1.00000000 0.00000000
 1.00000000 0.00000000
 1.00000000 0.00000000

8
 1.00000000 0.00000000
 1.00000000 0.00000000
 0.00000000 1.00000000
 1.00000000 0.00000000

8
 0.00000000 1.00000000
 1.00000000 0.00000000
 0.00000000 1.00000000
 0.00000000 1.00000000

8
 0.42827800 0.57172200
 0.10023500 0.89976500
 0.43355400 0.56644600
 0.12584400 0.87415600

8
 0.00000000 1.00000000
 0.00000000 1.00000000
 1.00000000 0.00000000
 1.00000000 0.00000000

8
 0.26188800 0.73811200
 0.38936000 0.61064000
 0.07341220 0.92658800
 0.30449200 0.69550800

8
 1.00000000 0.00000000
 0.00000000 1.00000000
 0.00000000 1.00000000
 1.00000000 0.00000000

8
 1.00000000 0.00000000
 1.00000000 0.00000000
 0.00000000 1.00000000
 1.00000000 0.00000000

4
 0.00000000 1.00000000
 1.00000000 0.00000000

8
 0.00000000 1.00000000
 0.00000000 1.00000000
 1.00000000 0.00000000
 0.00000000 1.00000000

8
 0.00000000 1.00000000
 0.00000000 1.00000000
 1.00000000 0.00000000
 1.00000000 0.00000000

4
 0.83934300 0.16065700
 0.37153800 0.62846200

4
 0.04329050 0.95670900
 0.96963900 0.03036120

2
 0.41711100 0.58288900

4
 1.00000000 0.00000000
 0.00000000 1.00000000

4
 0.66488100 0.33511900
 0.53498200 0.46501800

4
 1.00000000 0.00000000
 0.00000000 1.00000000

4
 1.00000000 0.00000000
 0.00000000 1.00000000

4
 0.67390800 0.32609200
 0.02149660 0.97850300

4
 1.00000000 0.00000000
 0.00000000 1.00000000

8
 0.00000000 1.00000000
 1.00000000 0.00000000
 1.00000000 0.00000000
 0.00000000 1.00000000

8
 0.00056380 0.99943600
 0.40877000 0.59123000
 0.09808360 0.90191600
 0.58951900 0.41048100

4
 0.00000000 1.00000000
 1.00000000 0.00000000

8
 1.00000000 0.00000000
 0.00000000 1.00000000
 1.00000000 0.00000000
 0.00000000 1.00000000

8
 0.00000000 1.00000000
 0.00000000 1.00000000
 1.00000000 0.00000000
 0.00000000 1.00000000

8
 0.13584700 0.86415300
 0.03449300 0.96550700
 0.76734500 0.23265500
 0.68208900 0.31791100

8
 0.11838700 0.88161300
 0.98647400 0.01352600
 0.62153700 0.37846300
 0.96203400 0.03796560

8
 1.00000000 0.00000000
 1.00000000 0.00000000
 0.00000000 1.00000000
 1.00000000 0.00000000

8
 0.00000000 1.00000000
 0.00000000 1.00000000
 1.00000000 0.00000000
 1.00000000 0.00000000

8
 0.00000000 1.00000000
 0.00000000 1.00000000
 1.00000000 0.00000000
 1.00000000 0.00000000

8
 0.00000000 1.00000000
 0.00000000 1.00000000
 0.00000000 1.00000000
 1.00000000 0.00000000

8
 0.00000000 1.00000000
 0.00000000 1.00000000
 1.00000000 0.00000000
 1.00000000 0.00000000

8
 0.96480500 0.03519450
 0.47435500 0.52564500
 0.27437700 0.72562300
 0.13122900 0.86877100

8
 1.00000000 0.00000000
 1.00000000 0.00000000
 0.00000000 1.00000000
 0.00000000 1.00000000

8
 0.35550300 0.64449700
 0.56814600 0.43185400
 0.65277700 0.34722300
 0.11443800 0.88556200

8
 1.00000000 0.00000000
 1.00000000 0.00000000
 1.00000000 0.00000000
 0.00000000 1.00000000

8
 0.00000000 1.00000000
 1.00000000 0.00000000
 1.00000000 0.00000000
 1.00000000 0.00000000

8
 1.00000000 0.00000000
 1.00000000 0.00000000
 1.00000000 0.00000000
 0.00000000 1.00000000

8
 1.00000000 0.00000000
 1.00000000 0.00000000
 0.00000000 1.00000000
 1.00000000 0.00000000

8
 0.00000000 1.00000000
 1.00000000 0.00000000
 1.00000000 0.00000000
 1.00000000 0.00000000

8
 0.93319100 0.06680920
 0.04766160 0.95233800
 0.89542100 0.10457900
 0.76668900 0.23331100

8
 0.66956600 0.33043400
 0.88239200 0.11760800
 0.06095190 0.93904800
 0.10311900 0.89688100

4
 0.00000000 1.00000000
 1.00000000 0.00000000

8
 0.00000000 1.00000000
 1.00000000 0.00000000
 1.00000000 0.00000000
 1.00000000 0.00000000

8
 0.00000000 1.00000000
 0.00000000 1.00000000
 0.00000000 1.00000000
 1.00000000 0.00000000

8
 0.00000000 1.00000000
 0.00000000 1.00000000
 1.00000000 0.00000000
 1.00000000 0.00000000

8
 0.03789160 0.96210800
 0.95554300 0.04445680
 0.65390600 0.34609400
 0.04817170 0.95182800

8
 0.00000000 1.00000000
 1.00000000 0.00000000
 1.00000000 0.00000000
 1.00000000 0.00000000

8
 1.00000000 0.00000000
 0.00000000 1.00000000
 1.00000000 0.00000000
 0.00000000 1.00000000

8
 0.00000000 1.00000000
 1.00000000 0.00000000
 0.00000000 1.00000000
 0.00000000 1.00000000

8
 0.61886000 0.38114000
 0.90495300 0.09504650
 0.39842800 0.60157200
 0.67430800 0.32569200

8
 0.65925000 0.34075000
 0.89704400 0.10295600
 0.45837900 0.54162100
 0.05263810 0.94736200

8
 1.00000000 0.00000000
 0.00000000 1.00000000
 1.00000000 0.00000000
 1.00000000 0.00000000

8
 0.95605500 0.04394490
 0.78617400 0.21382600
 0.04816460 0.95183500
 0.59529500 0.40470500

8
 0.00000000 1.00000000
 0.00000000 1.00000000
 1.00000000 0.00000000
 0.00000000 1.00000000

8
 0.03958820 0.96041200
 0.41610300 0.58389700
 0.82386200 0.17613800
 0.84884900 0.15115100

8
 0.00000000 1.00000000
 0.00000000 1.00000000
 1.00000000 0.00000000
 1.00000000 0.00000000

8
 0.00000000 1.00000000
 0.00000000 1.00000000
 1.00000000 0.00000000
 1.00000000 0.00000000

8
 0.00000000 1.00000000
 1.00000000 0.00000000
 0.00000000 1.00000000
 0.00000000 1.00000000

8
 0.78788900 0.21211100
 0.59364000 0.40636000
 0.37399500 0.62600500
 0.06365940 0.93634100

4
 0.00000000 1.00000000
 1.00000000 0.00000000

8
 1.00000000 0.00000000
 0.00000000 1.00000000
 0.00000000 1.00000000
 0.00000000 1.00000000

8
 0.00000000 1.00000000
 0.00000000 1.00000000
 1.00000000 0.00000000
 1.00000000 0.00000000

8
 0.78763500 0.21236500
 0.14813300 0.85186700
 0.18601600 0.81398400
 0.27754200 0.72245800

8
 0.06259030 0.93741000
 0.32427700 0.67572300
 0.24550700 0.75449300
 0.01741170 0.98258800

8
 0.00000000 1.00000000
 1.00000000 0.00000000
 1.00000000 0.00000000
 0.00000000 1.00000000

8
 1.00000000 0.00000000
 0.00000000 1.00000000
 0.00000000 1.00000000
 0.00000000 1.00000000

4
 1.00000000 0.00000000
 0.00000000 1.00000000

4
 0.00000000 1.00000000
 1.00000000 0.00000000

4
 1.00000000 0.00000000
 0.00000000 1.00000000

4
 1.00000000 0.00000000
 0.00000000 1.00000000

4
 0.26527400 0.73472600
 0.35537200 0.64462800

4
 1.00000000 0.00000000
 0.00000000 1.00000000

8
 0.19761400 0.80238600
 0.97079200 0.02920760
 0.13583100 0.86416900
 0.63924000 0.36076000

8
 1.00000000 0.00000000
 0.00000000 1.00000000
 1.00000000 0.00000000
 1.00000000 0.00000000

8
 0.00000000 1.00000000
 1.00000000 0.00000000
 0.00000000 1.00000000
 0.00000000 1.00000000

8
 0.61255200 0.38744800
 0.01116030 0.98884000
 0.09559490 0.90440500
 0.74445100 0.25554900

8
 1.00000000 0.00000000
 0.00000000 1.00000000
 0.00000000 1.00000000
 0.00000000 1.00000000

8
 0.80959900 0.19040100
 0.92350400 0.07649640
 0.62640900 0.37359100
 0.05544840 0.94455200

8
 0.00000000 1.00000000
 0.00000000 1.00000000
 1.00000000 0.00000000
 0.00000000 1.00000000

8
 0.00000000 1.00000000
 1.00000000 0.00000000
 0.00000000 1.00000000
 1.00000000 0.00000000

8
 1.00000000 0.00000000
 0.00000000 1.00000000
 1.00000000 0.00000000
 1.00000000 0.00000000

4
 1.00000000 0.00000000
 0.00000000 1.00000000

8
 0.76344900 0.23655100
 0.18203200 0.81796800
 0.85513900 0.14486100
 0.92272100 0.07727890

8
 1.00000000 0.00000000
 1.00000000 0.00000000
 0.00000000 1.00000000
 1.00000000 0.00000000

8
 1.00000000 0.00000000
 0.00000000 1.00000000
 1.00000000 0.00000000
 1.00000000 0.00000000

8
 0.00000000 1.00000000
 1.00000000 0.00000000
 1.00000000 0.00000000
 1.00000000 0.00000000

8
 0.88745800 0.11254200
 0.35276200 0.64723800
 0.53844800 0.46155200
 0.92870100 0.07129890

8
 1.00000000 0.00000000
 1.00000000 0.00000000
 0.00000000 1.00000000
 0.00000000 1.00000000

8
 0.42332400 0.57667600
 0.68919300 0.31080700
 0.63777200 0.36222800
 0.40100200 0.59899800

8
 1.00000000 0.00000000
 1.00000000 0.00000000
 0.00000000 1.00000000
 0.00000000 1.00000000

8
 0.00000000 1.00000000
 0.00000000 1.00000000
 1.00000000 0.00000000
 1.00000000 0.00000000

8
 1.00000000 0.00000000
 0.00000000 1.00000000
 0.00000000 1.00000000
 0.00000000 1.00000000

8
 0.00000000 1.00000000
 1.00000000 0.00000000
 1.00000000 0.00000000
 1.00000000 0.00000000

8
 0.00000000 1.00000000
 0.00000000 1.00000000
 1.00000000 0.00000000
 0.00000000 1.00000000

8
 0.00000000 1.00000000
 1.00000000 0.00000000
 1.00000000 0.00000000
 1.00000000 0.00000000

8
 0.00000000 1.00000000
 0.00000000 1.00000000
 1.00000000 0.00000000
 1.00000000 0.00000000

8
 1.00000000 0.00000000
 0.00000000 1.00000000
 1.00000000 0.00000000
 0.00000000 1.00000000

8
 1.00000000 0.00000000
 0.00000000 1.00000000
 1.00000000 0.00000000
 0.00000000 1.00000000

8
 1.00000000 0.00000000
 1.00000000 0.00000000
 1.00000000 0.00000000
 0.00000000 1.00000000

8
 0.00000000 1.00000000
 1.00000000 0.00000000
 1.00000000 0.00000000
 1.00000000 0.00000000

8
 0.00000000 1.00000000
 1.00000000 0.00000000
 1.00000000 0.00000000
 1.00000000 0.00000000

8
 0.00000000 1.00000000
 1.00000000 0.00000000
 1.00000000 0.00000000
 0.00000000 1.00000000

8
 0.00000000 1.00000000
 1.00000000 0.00000000
 0.00000000 1.00000000
 0.00000000 1.00000000

8
 0.00000000 1.00000000
 1.00000000 0.00000000
 0.00000000 1.00000000
 1.00000000 0.00000000

8
 0.92651100 0.07348850
 0.59781600 0.40218400
 0.74948300 0.25051700
 0.73466200 0.26533800

8
 0.00000000 1.00000000
 1.00000000 0.00000000
 1.00000000 0.00000000
 1.00000000 0.00000000

8
 0.00000000 1.00000000
 1.00000000 0.00000000
 1.00000000 0.00000000
 0.00000000 1.00000000

8
 1.00000000 0.00000000
 0.00000000 1.00000000
 1.00000000 0.00000000
 0.00000000 1.00000000

8
 1.00000000 0.00000000
 1.00000000 0.00000000
 1.00000000 0.00000000
 0.00000000 1.00000000

8
 0.00000000 1.00000000
 1.00000000 0.00000000
 0.00000000 1.00000000
 0.00000000 1.00000000

8
 1.00000000 0.00000000
 0.00000000 1.00000000
 0.00000000 1.00000000
 0.00000000 1.00000000

8
 1.00000000 0.00000000
 1.00000000 0.00000000
 0.00000000 1.00000000
 0.00000000 1.00000000

